SAT

què és un lògiva
1. sintaxi: què és una fórmula F?
2. semànrica: què és una interpretació I?
              quan F satisfà I?

Lògica proposicional

Sintaxi:

connectives: &, v, -
símbols de predicat (variables): p, q, r,...

p & ((q v r) & ((-p v r) & -q))

= 0 & ((1 v 0) & ((-0 v 0) & -1))
= 0 & ((1 v 0) & ((1 v 0) & 0))
= 0 & (1 & (1 & 0))
= 0
Es comprova en temps lineal

Semàntica:

a. Una interpretació I és una funció I: P ---> {0,1}
b. Quan F staistfà I? I |= F (eval_I(F) = 1)

I(p) = 0
I(q) = 1
I(r) = 0

Nombre d'interpretacions d'una fórmula de n variables: 2^n = 2 x 2 x ... 2

pqr  F
---  -
000  0
001  0
010  0
011  0
100  0
101  1
110  0
111  0

Una fórmula F està en CNF (Conjuntive Normal Form) si:
F és una conjunció de clàusules (una disjunció de literals),
on un literal és una variable afirmada o negada.

sudo apt install picosat
picosat random3SAT/vars-100-1.cnf

occurLists:
1: 34,56, 123,...
-1: 21, 54, 7,...


Millores:

1. Millorar la "unitpropagations" fent servir OccurLists literat 23: 45, 76, 101,....(llista de les clàusules on apareix el literal 23)

2. Comptador de "freqüències": nombre de vegades que cada literal apareix en clàusules

3. Comptador DE "CONFLICTES". Quan apareix un conflicte. incrementar el comptadr de
    1) el literal que ha provocat el conflictes
    2) els literals que apreixen en la clàucula "conflicte"

4. Dividir per 2 tots els comptadrs de conflictes cada N tries de literal (getNextDesicionLiteral)
